14 10 3.06 3 5 2 8 8197 4101
3 2 0 0 3 1 3 1 0 2
1 90
2 100
3 100
1 8
2 7
3 7
4 9
5 7
1 130
2 1050
1 1 0 580
2 2 0 550
3 2 0 520
4 2 0 570
5 2 0 590
6 2 0 520
7 2 0 540
8 2 0 600
0 1 1 130 11 1 4 3 17 1 2 2 3 3 5 2 18 1 1 2 1 3 4 1 6 1 1 2 5 3 1 4 11 1 4 2 2 3 2 1 2 2 9 1 2 2 3 3 1 1 7 1 4 2 1 3 2 5 4 1 14 1 2 2 3 3 4 2 10 1 5 2 3 3 3 3 14 1 4 2 3 3 3 4 12 1 5 2 4 3 1 3 2 4 18 1 4 2 3 3 3 1 7 1 4 2 3 3 1 2 3 1 9 1 2 2 1 3 1 2 7 1 4 2 1 3 1 3 16 1 5 2 5 3 5 3 3 4 8 1 3 2 3 3 2 2 12 1 4 2 3 3 1 1 8 1 2 2 3 3 2 2 4 1 10 1 2 2 1 3 4 3 19 1 2 2 1 3 5 2 8 1 1 2 4 3 4 4 5 1 5 2 4 3 5 2 2 3 7 1 2 2 2 3 5 1 11 1 4 2 4 3 5 3 4 1 15 1 5 2 5 3 5 2 17 1 5 2 2 3 5 3 13 1 2 2 2 3 5 4 9 1 3 2 4 3 4 4 4 3 14 1 5 2 2 3 5 1 10 1 1 2 1 3 4 2 16 1 3 2 3 3 5 4 9 1 1 2 4 3 2 5 4 3 8 1 4 2 2 3 4 2 20 1 1 2 2 3 3 1 6 1 2 2 1 3 4 4 16 1 2 2 5 3 5 
0 1 1 100 9 2 2 1 19 1 3 2 3 3 4 2 8 1 2 2 5 3 2 3 3 1 11 1 3 2 3 3 4 4 17 1 4 2 2 3 3 2 8 1 3 2 1 3 3 1 2 1 10 1 1 2 5 3 2 2 17 1 2 2 2 3 3 5 2 4 15 1 1 2 2 3 5 5 7 1 4 2 2 3 4 5 4 2 16 1 3 2 3 3 2 3 20 1 2 2 1 3 4 1 17 1 5 2 1 3 1 4 16 1 3 2 3 3 2 1 3 2 5 1 5 2 5 3 5 1 6 1 5 2 3 3 5 4 16 1 4 2 1 3 2 1 4 3 11 1 2 2 4 3 2 4 12 1 2 2 1 3 3 2 16 1 2 2 5 3 1 1 17 1 5 2 4 3 1 1 2 3 10 1 1 2 2 3 3 1 5 1 1 2 4 3 2 2 4 2 10 1 5 2 2 3 1 3 10 1 4 2 4 3 1 1 13 1 4 2 1 3 3 4 13 1 2 2 4 3 2 
0 1 1 130 11 4 4 3 12 1 4 2 2 3 1 1 6 1 4 2 2 3 3 4 12 1 1 2 1 3 5 2 18 1 5 2 3 3 5 3 2 2 16 1 4 2 3 3 4 1 11 1 4 2 3 3 2 1 3 1 14 1 2 2 4 3 1 2 16 1 3 2 5 3 5 4 18 1 3 2 5 3 3 4 4 4 15 1 1 2 1 3 1 5 16 1 3 2 2 3 4 6 5 1 2 2 5 3 5 2 15 1 5 2 5 3 2 2 4 1 5 1 4 2 2 3 3 4 7 1 4 2 3 3 2 2 15 1 2 2 2 3 4 3 10 1 4 2 2 3 2 2 4 1 15 1 5 2 2 3 5 3 18 1 1 2 3 3 1 2 12 1 5 2 1 3 1 4 8 1 2 2 2 3 3 4 3 2 5 1 3 2 3 3 3 3 5 1 1 2 3 3 1 1 9 1 2 2 2 3 1 5 3 1 19 1 1 2 3 3 1 2 13 1 2 2 4 3 3 3 8 1 5 2 2 3 1 3 2 1 10 1 2 2 1 3 2 2 8 1 4 2 4 3 5 5 4 1 12 1 5 2 5 3 2 2 12 1 5 2 2 3 4 3 13 1 4 2 3 3 4 4 15 1 1 2 5 3 4 2 3 3 7 1 4 2 2 3 4 1 10 1 4 2 5 3 4 4 10 1 3 2 1 3 2 
0 1 1 100 12 4 3 1 5 1 2 2 1 3 4 3 11 1 4 2 3 3 1 4 17 1 1 2 3 3 1 5 2 3 5 1 4 2 5 3 4 2 11 1 2 2 3 3 4 1 4 1 18 1 1 2 1 3 5 3 11 1 5 2 5 3 4 2 9 1 3 2 5 3 2 4 11 1 1 2 5 3 5 3 2 4 10 1 5 2 3 3 2 1 17 1 1 2 2 3 5 5 3 3 19 1 4 2 4 3 1 1 13 1 1 2 4 3 2 2 17 1 3 2 5 3 2 5 4 1 7 1 5 2 5 3 5 2 12 1 4 2 5 3 5 3 14 1 4 2 5 3 4 4 15 1 2 2 5 3 3 3 3 1 12 1 3 2 3 3 4 3 8 1 4 2 4 3 5 2 5 1 2 2 3 3 2 1 3 1 18 1 3 2 2 3 3 2 18 1 3 2 4 3 2 3 10 1 5 2 2 3 4 4 4 1 19 1 5 2 5 3 4 4 19 1 3 2 4 3 5 3 20 1 1 2 4 3 2 2 13 1 4 2 1 3 5 4 4 3 7 1 5 2 4 3 1 2 18 1 5 2 1 3 5 1 19 1 3 2 4 3 2 4 18 1 1 2 5 3 1 2 4 3 6 1 5 2 3 3 5 4 20 1 4 2 3 3 1 5 18 1 1 2 4 3 2 2 20 1 2 2 4 3 4 2 4 3 11 1 3 2 1 3 2 1 8 1 2 2 3 3 2 2 18 1 5 2 3 3 5 4 8 1 2 2 2 3 5 
0 1 1 120 12 4 4 1 19 1 2 2 1 3 3 3 14 1 1 2 4 3 3 4 14 1 2 2 3 3 4 2 17 1 1 2 3 3 2 5 4 1 15 1 3 2 5 3 3 2 7 1 1 2 2 3 5 3 10 1 2 2 1 3 3 4 18 1 3 2 2 3 1 4 4 1 10 1 1 2 5 3 1 2 18 1 2 2 4 3 1 3 20 1 2 2 2 3 2 4 15 1 5 2 2 3 1 2 4 2 14 1 4 2 4 3 4 1 9 1 1 2 5 3 3 3 15 1 2 2 3 3 5 4 15 1 3 2 2 3 2 4 4 1 19 1 2 2 1 3 5 4 6 1 2 2 5 3 2 3 16 1 4 2 4 3 3 5 18 1 5 2 2 3 1 4 2 2 6 1 4 2 1 3 1 1 18 1 2 2 1 3 4 3 4 3 8 1 1 2 2 3 1 4 15 1 2 2 2 3 2 5 19 1 3 2 1 3 3 1 10 1 4 2 4 3 5 4 2 4 9 1 4 2 1 3 5 2 5 1 2 2 3 3 4 3 2 4 17 1 2 2 4 3 1 5 9 1 3 2 2 3 5 2 3 1 11 1 2 2 1 3 1 2 13 1 5 2 3 3 5 3 16 1 3 2 2 3 2 4 3 1 16 1 3 2 5 3 5 4 17 1 1 2 4 3 4 3 19 1 5 2 2 3 5 1 2 4 20 1 5 2 4 3 1 3 6 1 4 2 1 3 1 
1 1 110 7 2 120 3 110 4 110 5 120 6 100 7 140 8 90 9 2 4 3 8 1 5 2 1 3 5 1 7 1 3 2 4 3 5 2 20 1 2 2 4 3 4 4 10 1 5 2 1 3 2 2 4 4 14 1 5 2 1 3 1 3 11 1 2 2 3 3 4 1 16 1 3 2 3 3 3 2 10 1 4 2 4 3 1 1 3 1 17 1 1 2 5 3 3 2 7 1 2 2 3 3 1 3 6 1 3 2 1 3 3 1 2 2 17 1 4 2 3 3 4 1 9 1 2 2 5 3 2 1 3 1 18 1 1 2 1 3 2 2 8 1 1 2 4 3 2 3 12 1 3 2 4 3 5 2 2 3 5 1 3 2 5 3 2 2 14 1 2 2 3 3 4 4 2 1 7 1 1 2 1 3 5 2 9 1 3 2 2 3 2 4 3 1 6 1 5 2 5 3 1 2 6 1 3 2 4 3 4 3 18 1 3 2 1 3 4 4 2 2 19 1 2 2 3 3 2 3 13 1 2 2 3 3 2 
1 1 110 7 2 90 3 120 4 150 5 160 6 170 7 170 8 120 9 1 4 4 12 1 3 2 4 3 4 1 7 1 5 2 5 3 3 2 15 1 3 2 3 3 3 3 16 1 1 2 4 3 2 5 3 1 11 1 5 2 5 3 3 3 10 1 1 2 2 3 4 2 8 1 1 2 2 3 3 4 4 1 17 1 5 2 4 3 2 2 18 1 5 2 5 3 5 3 11 1 1 2 5 3 4 4 10 1 5 2 3 3 2 2 4 1 20 1 1 2 2 3 4 2 12 1 3 2 4 3 5 3 11 1 3 2 3 3 4 4 15 1 1 2 5 3 2 2 4 1 7 1 5 2 2 3 1 2 9 1 5 2 4 3 3 3 11 1 5 2 1 3 2 4 12 1 3 2 2 3 1 2 4 1 9 1 1 2 5 3 5 3 16 1 3 2 5 3 3 2 6 1 4 2 5 3 3 5 18 1 1 2 3 3 1 5 2 2 15 1 5 2 5 3 1 3 15 1 4 2 1 3 4 3 2 1 17 1 3 2 1 3 4 2 18 1 4 2 1 3 5 5 2 2 13 1 4 2 1 3 3 1 18 1 3 2 5 3 2 
1 1 130 7 2 60 3 70 4 120 5 70 6 90 7 40 8 100 10 3 2 1 19 1 4 2 5 3 5 2 8 1 1 2 3 3 2 4 2 4 5 1 5 2 3 3 5 3 17 1 3 2 5 3 3 2 2 2 18 1 3 2 3 3 4 1 8 1 3 2 3 3 4 1 3 2 11 1 2 2 3 3 4 1 11 1 5 2 1 3 5 3 7 1 3 2 3 3 1 5 2 1 13 1 1 2 4 3 1 2 11 1 2 2 3 3 3 5 4 2 13 1 5 2 4 3 2 1 14 1 4 2 3 3 3 3 13 1 3 2 5 3 4 4 9 1 1 2 3 3 2 5 3 2 18 1 4 2 2 3 2 1 16 1 5 2 2 3 2 3 7 1 2 2 1 3 3 2 4 1 16 1 3 2 4 3 5 2 5 1 5 2 5 3 3 3 17 1 4 2 1 3 1 4 10 1 3 2 2 3 3 2 4 1 20 1 1 2 3 3 2 3 6 1 2 2 5 3 4 2 13 1 4 2 5 3 1 4 17 1 4 2 1 3 2 3 4 1 8 1 1 2 4 3 2 3 17 1 2 2 2 3 1 2 5 1 4 2 5 3 5 4 5 1 2 2 2 3 5 
1 1 110 7 2 160 3 110 4 100 5 130 6 80 7 80 8 140 8 1 4 4 13 1 1 2 3 3 4 5 12 1 4 2 2 3 2 3 12 1 2 2 1 3 5 1 10 1 5 2 1 3 4 5 4 3 11 1 3 2 3 3 4 2 14 1 5 2 3 3 5 1 16 1 2 2 3 3 2 4 15 1 4 2 5 3 2 1 4 1 15 1 2 2 2 3 5 2 19 1 5 2 5 3 5 3 18 1 4 2 2 3 3 4 5 1 5 2 5 3 3 5 3 4 14 1 3 2 4 3 5 2 18 1 2 2 5 3 2 1 9 1 4 2 1 3 2 3 2 2 10 1 3 2 3 3 3 1 17 1 5 2 1 3 2 3 4 3 15 1 1 2 4 3 3 1 7 1 2 2 5 3 3 2 17 1 4 2 1 3 5 4 12 1 4 2 4 3 2 2 4 3 11 1 2 2 1 3 5 2 11 1 3 2 4 3 5 4 20 1 4 2 3 3 1 1 9 1 2 2 5 3 3 1 4 2 18 1 5 2 3 3 3 3 5 1 4 2 2 3 2 1 8 1 3 2 4 3 1 4 15 1 4 2 3 3 3 
1 1 120 7 2 120 3 110 4 90 5 110 6 80 7 110 8 150 12 1 4 1 12 1 4 2 1 3 5 2 11 1 4 2 5 3 5 3 16 1 4 2 1 3 4 4 20 1 3 2 1 3 4 1 4 4 8 1 3 2 5 3 4 1 11 1 1 2 3 3 4 5 8 1 3 2 1 3 5 2 12 1 1 2 5 3 2 5 3 2 5 1 1 2 2 3 3 1 18 1 1 2 5 3 5 3 9 1 3 2 3 3 4 1 4 4 7 1 1 2 3 3 2 1 18 1 5 2 3 3 1 2 16 1 3 2 4 3 3 5 16 1 4 2 2 3 1 4 2 2 15 1 3 2 2 3 2 3 6 1 1 2 1 3 4 1 4 3 18 1 3 2 1 3 5 2 10 1 3 2 5 3 3 4 19 1 2 2 3 3 4 5 8 1 1 2 4 3 1 5 2 4 5 1 5 2 1 3 2 5 13 1 5 2 2 3 3 4 3 4 16 1 5 2 5 3 5 1 14 1 1 2 5 3 3 2 10 1 2 2 2 3 5 1 3 2 15 1 1 2 2 3 2 4 8 1 4 2 1 3 4 3 10 1 1 2 4 3 4 4 2 1 14 1 4 2 1 3 5 2 8 1 3 2 2 3 5 5 3 2 5 1 2 2 4 3 2 1 14 1 3 2 3 3 4 3 13 1 5 2 5 3 1 3 4 1 12 1 5 2 5 3 4 4 7 1 1 2 2 3 5 3 16 1 1 2 2 3 3 5 10 1 4 2 3 3 5 
7 2 100 3 200 4 140 5 170 6 130 7 130 8 180 0 8 5 2 2 11 1 1 2 4 3 3 3 18 1 4 2 1 3 1 3 3 2 18 1 3 2 4 3 5 1 17 1 1 2 5 3 2 3 6 1 4 2 2 3 2 1 3 3 9 1 3 2 5 3 3 2 8 1 3 2 3 3 1 4 17 1 4 2 4 3 2 5 2 2 15 1 2 2 2 3 4 1 8 1 1 2 3 3 5 3 4 2 7 1 4 2 3 3 4 1 13 1 3 2 5 3 2 3 7 1 4 2 4 3 1 4 15 1 1 2 4 3 4 2 4 1 9 1 1 2 5 3 5 2 18 1 4 2 2 3 2 3 11 1 3 2 2 3 5 4 10 1 1 2 2 3 1 4 2 4 11 1 5 2 4 3 2 2 16 1 1 2 5 3 4 4 2 1 5 1 3 2 1 3 1 4 19 1 2 2 1 3 4 
7 2 150 3 120 4 100 5 110 6 160 7 140 8 130 0 11 4 4 1 8 1 3 2 3 3 3 2 19 1 4 2 5 3 4 3 13 1 4 2 3 3 2 4 19 1 5 2 2 3 3 3 3 2 11 1 1 2 3 3 5 4 5 1 5 2 4 3 4 3 14 1 2 2 2 3 5 3 4 1 11 1 1 2 5 3 3 4 15 1 1 2 2 3 1 2 18 1 4 2 2 3 3 3 10 1 5 2 4 3 5 4 3 2 17 1 4 2 5 3 5 1 8 1 3 2 5 3 2 3 15 1 2 2 3 3 3 2 3 1 14 1 1 2 1 3 1 3 8 1 2 2 4 3 2 2 9 1 2 2 1 3 1 3 3 1 11 1 3 2 3 3 1 2 18 1 1 2 2 3 1 4 10 1 1 2 3 3 1 3 4 2 19 1 1 2 5 3 1 3 5 1 3 2 3 3 2 4 13 1 1 2 2 3 4 1 11 1 4 2 3 3 3 2 2 1 16 1 1 2 2 3 5 2 12 1 3 2 5 3 5 1 4 3 12 1 2 2 2 3 5 4 13 1 3 2 1 3 2 5 13 1 5 2 2 3 5 1 8 1 1 2 4 3 1 4 2 4 16 1 4 2 3 3 4 2 16 1 2 2 1 3 4 1 2 1 12 1 3 2 1 3 2 4 11 1 2 2 3 3 3 
7 2 170 3 100 4 210 5 150 6 110 7 110 8 200 0 12 5 4 4 16 1 5 2 4 3 5 2 5 1 2 2 4 3 3 3 13 1 2 2 2 3 3 1 16 1 3 2 1 3 3 3 2 2 18 1 3 2 2 3 1 3 11 1 4 2 2 3 4 1 3 2 5 1 4 2 1 3 5 4 5 1 1 2 4 3 3 1 15 1 3 2 4 3 1 5 2 1 15 1 4 2 5 3 5 2 9 1 1 2 5 3 3 4 2 2 13 1 4 2 4 3 3 1 20 1 4 2 5 3 2 4 2 1 9 1 5 2 2 3 4 2 7 1 3 2 2 3 5 3 2 3 5 1 5 2 1 3 1 4 17 1 1 2 4 3 4 2 4 1 9 1 1 2 1 3 2 2 11 1 2 2 3 3 5 3 20 1 2 2 3 3 2 4 7 1 5 2 2 3 5 4 3 1 12 1 5 2 2 3 5 2 18 1 2 2 4 3 3 3 18 1 1 2 5 3 1 1 2 3 19 1 2 2 5 3 5 2 13 1 4 2 2 3 3 1 4 3 11 1 5 2 1 3 1 2 17 1 5 2 5 3 2 4 6 1 4 2 5 3 1 1 5 1 2 2 1 3 4 5 3 2 12 1 1 2 1 3 2 1 16 1 1 2 3 3 5 3 17 1 2 2 3 3 5 
7 2 130 3 100 4 120 5 160 6 120 7 160 8 90 0 9 4 2 2 13 1 4 2 1 3 1 1 8 1 2 2 4 3 4 1 2 1 15 1 2 2 1 3 4 4 9 1 3 2 3 3 3 4 2 1 16 1 3 2 1 3 5 2 18 1 4 2 1 3 1 4 2 4 14 1 4 2 5 3 5 3 20 1 2 2 3 3 1 3 2 1 15 1 4 2 2 3 4 2 7 1 5 2 2 3 2 2 4 3 6 1 5 2 4 3 3 1 5 1 2 2 2 3 1 2 8 1 2 2 3 3 2 4 13 1 4 2 4 3 4 1 2 1 15 1 1 2 1 3 3 2 10 1 3 2 5 3 4 1 3 2 10 1 5 2 5 3 2 1 12 1 2 2 3 3 2 4 18 1 3 2 1 3 3 4 3 3 19 1 4 2 4 3 5 1 12 1 4 2 4 3 2 2 7 1 5 2 3 3 4 
